Version identifier: 20.1.0.0 | 2020-11-10 | 9bedb6d68
CPXPARAM_Threads                                 1
CPXPARAM_TimeLimit                               7200
CPXPARAM_MIP_Tolerances_MIPGap                   0
Generic callback                                 0x60
1 of 1 MIP starts provided solutions.
MIP start 'm1' defined initial solution with objective 2702.9617.
Tried aggregator 1 time.
Reduced MIP has 1001001 rows, 1001001 columns, and 3001000 nonzeros.
Reduced MIP has 1000 binaries, 0 generals, 0 SOSs, and 0 indicators.
Presolve time = 0.92 sec. (798.63 ticks)
Probing time = 0.13 sec. (125.04 ticks)
Tried aggregator 1 time.
Reduced MIP has 1001001 rows, 1001001 columns, and 3001000 nonzeros.
Reduced MIP has 1000 binaries, 0 generals, 0 SOSs, and 0 indicators.
Presolve time = 0.97 sec. (782.41 ticks)
Probing time = 0.13 sec. (125.04 ticks)
MIP emphasis: balance optimality and feasibility.
MIP search method: dynamic search.
Parallel mode: none, using 1 thread.
Root relaxation solution time = 0.33 sec. (385.37 ticks)

        Nodes                                         Cuts/
   Node  Left     Objective  IInf  Best Integer    Best Bound    ItCnt     Gap

*     0+    0                         2702.9617     5432.0000           100.96%
      0     0     2977.5466     6     2702.9617     5432.0000        0  100.96%
      0     0     2977.4640     7     2702.9617      Fract: 1     2515   10.16%
*     0+    0                         2709.6184     2977.4640             9.88%
*     0+    0                         2716.0000     2977.4640             9.63%
      0     0        cutoff           2716.0000     2977.4640     2515    9.63%
Elapsed time = 1185.28 sec. (1278669.47 ticks, tree = 0.01 MB, solutions = 3)

User cuts applied:  1

Root node processing (before b&c):
  Real time             = 1185.38 sec. (1278739.15 ticks)
Sequential b&c:
  Real time             =    0.00 sec. (0.00 ticks)
                          ------------
Total (root+branch&cut) = 1185.38 sec. (1278739.15 ticks)
@Parameters: 
is_S_cut                                true
is_add_all_yinF                         true
is_start_value                          true
is_usercut                              true
is_visualization                        false
uc_only_rootnode                        false

data                                    Qi
fn                                      data/Qi/instance_1000_1000.csv
mode                                    ZLP
solver                                  cplex

p                                       5
r                                       5

EPS                                     1.0e-06
EPS_vio                                 1.0e-04
beta                                    0.10
gap                                     0.00
nodelimit                               Inf
timelimit                               7200.00


@PrintInfos
ItCnt: 2515
Current gap: 0.00 %
Termination Status: OPTIMAL
Primal Status: FEASIBLE_POINT
Solve Time: 1185.38 sec
Objective Value: 2716.000000
Number of Nodes:      0

CutInfo: [phase] num / time (sec) 
ZLP             [phase1]     0 / 0.00 [rLC]     3 / 27.93 [rUC]     1 / 5.63 [sLC]     0 / 0.00 [sUC]     0 / 0.00 
OldSubmodular   [phase1]     0 / 0.00 [rLC]     0 / 0.00 [rUC]     0 / 0.00 [sLC]     0 / 0.00 [sUC]     0 / 0.00 
NewSubmodular   [phase1]     0 / 0.00 [rLC]     0 / 0.00 [rUC]     0 / 0.00 [sLC]     0 / 0.00 [sUC]     0 / 0.00 
PMP             [phase1]     0 / 0.00 [rLC]     6 / 21.44 [rUC]     1 / 4.12 [sLC]     0 / 0.00 [sUC]     0 / 0.00 
Separation Round: [phase1] 0  [rLC] 6  [rUC] 1  [sLC] 0  [sUC] 0
Root Best Bound 2716.000000
Root Best Integer: 2716.000000
Best Bound: 2716.000000
Best Integer: 2716.000000

